! @@method@@ @@basis@@ @@basis@@/C TightSCF @@solvation@@(@@solvent@@)
# Synthetic input file derived from Chemoton json output file: @@mongodb@@
*xyz @@charge@@ @@multiplicity@@
@@xyz@@
